min: 1 x1 + 1 x2 + 1 x3 + 1 x4 + 1 x5 + 1 x6 + 1 x7 + 1 x8 + 1 x9 + 1 x10 + 1 x11 + 1 x12 + 1 x13 + 1 x14 + 1 x15 + 1 x16 + 1 x17 + 1 x18 + 1 x19 + 1 x20 + 1 x21 + 1 x22 + 1 x23 + 1 x24 + 1 x25 + 1 x26 + 1 x27 + 1 x28 + 1 x29 + 1 x30 + 1 x31 + 1 x32 + 1 x33 + 1 x34 + 1 x35 + 1 x36 + 1 x37 + 1 x38 + 1 x39 + 1 x40 + 1 x41 + 1 x42 + 1 x43 + 1 x44 + 1 x45 + 1 x46 + 1 x47 + 1 x48 + 1 x49 + 1 x50 + 1 x51 + 1 x52 + 1 x53 + 1 x54 + 1 x55 + 1 x56 + 1 x57 + 1 x58 + 1 x59 + 1 x60 + 1 x61 + 1 x62 + 1 x63 + 1 x64 + 1 x65 + 1 x66 + 1 x67 + 1 x68 + 1 x69 + 1 x70 + 1 x71 + 1 x72 + 1 x73 + 1 x74 + 1 x75 + 1 x76 + 1 x77 + 1 x78 + 1 x79 + 1 x80 + 1 x81 + 1 x82 + 1 x83 + 1 x84 + 1 x85 + 1 x86 + 1 x87 + 1 x88 + 1 x89 + 1 x90 + 1 x91 + 1 x92 + 1 x93 + 1 x94 + 1 x95 + 1 x96 + 1 x97 + 1 x98 + 1 x99 + 1 x100;

r1: x35 + x69 + x48 + x83 + x54 + x79 + x13 + x80 >= 1;
r2: x98 + x38 + x68 + x40 >= 1;
r3: x49 + x32 + x80 + x74 >= 1;
r4: x67 + x71 + x49 + x77 + x64 >= 1;
r5: x89 + x79 + x38 + x94 + x8 + x82 + x76 >= 1;
r6: x23 + x71 + x89 >= 1;
r7: x97 + x74 + x45 + x57 + x9 + x91 >= 1;
r8: x40 + x99 + x6 + x17 + x8 + x4 >= 1;
r9: x57 + x29 + x19 + x99 >= 1;
r10: x75 + x53 + x86 + x9 + x59 + x49 >= 1;
r11: x9 + x68 + x95 + x24 + x56 >= 1;
r12: x63 + x74 + x98 + x83 + x43 + x41 >= 1;
r13: x30 + x55 + x12 + x52 + x79 + x26 >= 1;
r14: x89 + x69 + x78 + x37 + x66 + x32 >= 1;
r15: x43 + x72 + x69 + x5 >= 1;
r16: x47 + x89 + x72 + x68 + x14 >= 1;
r17: x31 + x5 + x58 + x59 + x32 >= 1;
r18: x36 >= 1;
r19: x17 + x36 + x22 + x59 + x14 >= 1;
r20: x54 + x13 >= 1;
r21: x81 + x16 + x79 + x32 + x92 + x28 + x26 >= 1;
r22: x64 + x94 + x66 >= 1;
r23: x45 + x58 + x93 + x78 + x37 + x28 + x79 + x63 >= 1;
r24: x6 >= 1;
r25: x19 + x58 + x45 + x43 + x6 + x20 + x27 >= 1;
r26: x59 >= 1;
r27: x66 + x8 + x10 + x35 + x19 + x56 >= 1;
r28: x83 + x59 + x10 >= 1;
r29: x88 >= 1;
r30: x36 + x24 + x87 + x20 + x79 + x1 >= 1;
r31: x83 + x19 + x56 + x88 + x68 + x36 + x11 + x98 >= 1;
r32: x71 + x94 + x45 + x10 + x36 + x43 >= 1;
r33: x3 + x42 >= 1;
r34: x61 + x13 + x64 + x42 + x91 + x50 + x45 + x59 >= 1;
r35: x74 + x86 + x71 + x95 >= 1;
r36: x55 + x72 + x80 + x22 + x44 + x20 >= 1;
r37: x86 + x1 + x62 + x11 + x53 + x21 + x61 + x93 >= 1;
r38: x96 + x51 + x65 >= 1;
r39: x78 + x35 + x68 + x81 + x18 >= 1;
r40: x59 + x77 + x38 + x61 + x33 + x10 + x49 + x53 >= 1;
r41: x21 + x53 + x24 + x71 + x64 >= 1;
r42: x38 + x91 + x85 + x92 + x35 + x69 >= 1;
r43: x15 + x100 + x21 + x79 >= 1;
r44: x3 >= 1;
r45: x23 + x40 + x21 >= 1;
r46: x31 + x76 + x69 + x60 + x94 + x19 + x58 >= 1;
r47: x43 + x6 + x35 >= 1;
r48: x61 >= 1;
r49: x67 + x54 >= 1;
r50: x34 + x20 + x52 + x56 + x30 + x1 + x2 + x89 >= 1;
r51: x5 + x61 + x50 >= 1;
r52: x9 + x80 + x30 + x37 + x6 >= 1;
r53: x67 + x42 + x87 >= 1;
r54: x96 >= 1;
r55: x81 + x70 + x73 + x26 + x65 + x21 >= 1;
r56: x1 >= 1;
r57: x73 + x44 + x48 + x16 + x12 + x82 + x100 + x27 >= 1;
r58: x89 + x31 + x74 + x50 + x59 + x61 + x64 >= 1;
r59: x97 + x64 + x81 + x12 + x48 >= 1;
r60: x19 + x64 + x62 + x28 >= 1;
r61: x25 + x91 + x48 + x50 >= 1;
r62: x73 + x2 + x34 + x51 + x72 + x58 + x80 >= 1;
r63: x33 >= 1;
r64: x65 >= 1;
r65: x60 + x82 + x15 >= 1;
r66: x94 + x4 + x33 + x81 + x41 + x20 + x92 + x87 >= 1;
r67: x25 + x36 >= 1;
r68: x55 + x75 >= 1;
r69: x35 + x60 + x30 + x42 + x28 + x71 >= 1;
r70: x34 + x73 + x59 + x20 >= 1;
r71: x66 + x87 + x32 + x13 + x11 + x31 + x65 >= 1;
r72: x90 + x48 + x77 + x54 >= 1;
r73: x87 + x1 + x33 + x46 + x10 + x2 + x23 + x24 >= 1;
r74: x9 + x93 + x15 + x17 + x89 + x72 >= 1;
r75: x16 + x72 + x93 + x29 + x97 + x22 + x7 >= 1;
r76: x23 + x95 >= 1;
r77: x26 + x84 + x8 + x71 >= 1;
r78: x59 + x54 + x39 + x100 + x90 + x38 >= 1;
r79: x87 + x41 + x74 + x71 + x61 >= 1;
r80: x69 + x66 + x71 + x87 + x65 + x80 >= 1;
r81: x79 + x91 + x25 >= 1;
r82: x36 >= 1;
r83: x49 + x39 >= 1;
r84: x65 + x64 + x17 + x25 + x31 + x62 + x69 >= 1;
r85: x22 >= 1;
r86: x83 + x78 + x98 + x31 + x95 >= 1;
r87: x88 + x8 + x11 + x59 + x45 + x44 >= 1;
r88: x41 + x38 + x42 + x50 + x4 + x69 + x93 >= 1;
r89: x32 + x94 + x70 + x74 + x90 + x78 + x39 + x2 >= 1;
r90: x17 + x60 + x26 + x30 + x85 >= 1;
r91: x59 + x75 + x46 + x60 + x52 + x98 + x50 + x20 >= 1;
r92: x1 + x94 + x53 + x98 + x87 + x52 >= 1;
r93: x93 + x95 + x67 + x27 >= 1;
r94: x7 + x25 + x28 + x78 + x61 >= 1;
r95: x52 + x45 + x63 + x38 + x80 + x93 + x47 >= 1;
r96: x35 + x50 >= 1;
r97: x78 + x18 + x71 + x39 + x51 + x3 + x7 >= 1;
r98: x32 + x81 + x78 + x91 + x62 + x52 >= 1;
r99: x31 + x14 + x68 + x44 + x18 + x36 + x71 + x11 >= 1;
r100: x89 + x50 + x67 + x1 + x88 + x18 + x24 + x76 >= 1;
r101: x59 + x84 + x3 + x67 + x50 >= 1;
r102: x46 + x63 + x32 >= 1;
r103: x18 + x57 + x30 >= 1;
r104: x56 + x70 + x62 + x43 + x44 >= 1;
r105: x43 + x77 + x40 >= 1;
r106: x61 + x62 + x78 + x6 + x26 + x51 + x31 >= 1;
r107: x24 + x51 + x4 >= 1;
r108: x52 + x3 + x16 + x50 + x15 >= 1;
r109: x54 + x100 + x73 >= 1;
r110: x1 + x32 + x37 + x26 + x7 + x41 >= 1;
r111: x20 + x85 + x92 >= 1;
r112: x88 + x13 + x14 + x80 >= 1;
r113: x50 + x5 + x95 + x90 >= 1;
r114: x8 + x58 + x69 + x48 + x3 + x93 + x22 + x37 >= 1;
r115: x15 + x37 + x93 + x68 >= 1;
r116: x59 + x69 >= 1;
r117: x81 + x86 + x8 + x65 + x70 + x60 + x25 >= 1;
r118: x2 + x31 + x62 + x97 + x1 + x89 >= 1;
r119: x22 + x51 + x66 >= 1;
r120: x54 + x64 + x59 >= 1;
r121: x14 >= 1;
r122: x4 + x20 + x98 >= 1;
r123: x82 >= 1;
r124: x35 + x53 + x34 + x6 >= 1;
r125: x20 + x57 + x62 >= 1;
r126: x87 + x97 + x75 + x57 + x63 + x46 + x22 + x21 >= 1;
r127: x100 + x64 >= 1;
r128: x24 + x34 + x81 + x43 + x65 + x45 >= 1;
r129: x73 + x83 >= 1;
r130: x81 + x18 >= 1;
r131: x34 + x59 + x26 + x71 + x72 + x43 >= 1;
r132: x26 + x36 + x86 + x96 + x29 + x76 + x32 + x80 >= 1;
r133: x52 + x79 + x80 + x54 + x28 + x90 + x97 >= 1;
r134: x7 + x12 >= 1;
r135: x62 + x89 + x61 + x44 >= 1;
r136: x1 >= 1;
r137: x85 + x90 + x93 + x44 + x31 >= 1;
r138: x35 >= 1;
r139: x68 + x19 + x78 + x41 + x26 >= 1;
r140: x56 + x44 + x87 + x7 + x81 >= 1;
r141: x23 + x74 >= 1;
r142: x80 + x90 + x39 + x29 + x85 + x1 >= 1;
r143: x44 + x81 + x30 >= 1;
r144: x26 + x92 >= 1;
r145: x91 + x68 + x21 + x97 + x67 + x99 + x79 >= 1;
r146: x96 + x70 + x55 + x37 + x27 + x24 + x18 >= 1;
r147: x83 + x26 >= 1;
r148: x42 + x82 + x43 + x13 + x25 + x85 + x45 >= 1;
r149: x38 + x70 + x72 + x24 >= 1;
r150: x9 + x5 + x22 + x74 + x31 + x57 + x66 >= 1;
r151: x91 + x48 + x66 + x88 + x4 + x58 + x32 >= 1;
r152: x59 + x32 + x47 >= 1;
r153: x65 + x40 >= 1;
r154: x62 + x76 + x1 + x3 >= 1;
r155: x30 + x14 + x3 + x72 + x96 >= 1;
r156: x91 + x25 + x9 + x40 + x46 + x75 + x21 >= 1;
r157: x38 + x10 + x49 + x83 + x94 + x33 >= 1;
r158: x17 + x76 + x15 >= 1;
r159: x22 + x10 + x68 + x59 + x95 + x7 + x63 >= 1;
r160: x16 + x13 + x64 >= 1;
r161: x99 + x77 + x41 >= 1;
r162: x48 >= 1;
r163: x6 + x53 + x26 + x97 + x57 + x14 >= 1;
r164: x73 + x52 + x25 + x88 + x86 + x69 >= 1;
r165: x17 + x67 + x57 + x32 + x25 + x75 + x65 + x58 >= 1;
r166: x21 >= 1;
r167: x35 + x95 + x39 >= 1;
r168: x63 >= 1;
r169: x77 + x84 + x91 + x8 + x55 + x18 + x72 >= 1;
r170: x44 + x13 + x84 + x62 + x100 + x43 + x74 + x50 >= 1;
r171: x1 + x5 + x87 + x81 + x18 + x89 + x9 + x19 >= 1;
r172: x79 + x20 + x1 + x44 + x24 + x70 + x77 + x31 >= 1;
r173: x25 + x67 + x36 + x98 >= 1;
r174: x64 + x93 + x95 + x47 + x27 >= 1;
r175: x100 + x59 + x89 + x86 >= 1;
r176: x94 + x20 + x88 + x19 + x71 >= 1;
r177: x7 + x57 + x89 + x14 + x67 + x8 + x30 + x36 >= 1;
r178: x19 + x50 + x79 + x15 + x62 >= 1;
r179: x89 + x58 + x77 >= 1;
r180: x10 + x45 + x71 + x30 + x49 + x56 + x69 >= 1;
r181: x5 + x33 + x26 + x76 + x100 + x41 + x2 >= 1;
r182: x59 + x81 + x76 + x87 + x95 + x62 + x51 >= 1;
r183: x50 + x26 + x62 + x5 + x97 + x27 + x96 >= 1;
r184: x56 + x19 + x42 + x77 + x95 + x60 + x41 + x27 >= 1;
r185: x42 + x91 + x53 + x84 + x22 >= 1;
r186: x27 + x55 + x60 + x94 + x84 + x37 + x87 + x100 >= 1;
r187: x43 >= 1;
r188: x100 + x41 + x76 + x83 >= 1;
r189: x24 + x62 + x7 + x92 + x77 + x4 + x36 >= 1;
r190: x91 + x97 + x73 + x75 + x32 + x40 >= 1;
r191: x11 + x87 + x94 >= 1;
r192: x68 + x78 + x67 + x91 >= 1;
r193: x92 + x12 + x17 + x28 + x65 + x16 >= 1;
r194: x47 + x18 + x32 + x95 >= 1;
r195: x80 + x4 + x76 + x17 + x88 + x93 >= 1;
r196: x19 + x27 + x35 + x32 + x99 + x37 >= 1;
r197: x83 + x62 + x25 + x76 + x10 >= 1;
r198: x45 + x26 >= 1;
r199: x2 + x17 >= 1;
r200: x22 >= 1;
r201: x82 + x68 >= 1;
r202: x67 >= 1;
r203: x32 + x34 + x92 + x96 >= 1;
r204: x57 + x19 + x78 + x69 + x91 + x33 >= 1;
r205: x96 + x67 + x31 + x84 + x53 + x56 >= 1;
r206: x4 + x7 + x6 + x98 + x69 + x68 + x11 >= 1;
r207: x12 + x55 + x26 + x94 + x19 >= 1;
r208: x10 + x44 >= 1;
r209: x43 + x17 + x42 + x54 + x75 + x98 + x69 + x27 >= 1;
r210: x47 + x32 + x9 + x60 + x45 + x74 >= 1;
r211: x44 + x67 + x33 >= 1;
r212: x93 + x94 + x66 + x1 + x8 + x13 + x45 >= 1;
r213: x65 + x56 + x60 + x66 + x37 + x8 >= 1;
r214: x65 + x24 + x48 >= 1;
r215: x81 + x47 + x30 >= 1;
r216: x53 + x26 + x3 + x86 + x70 + x4 >= 1;
r217: x39 + x58 + x19 + x78 + x3 + x51 >= 1;
r218: x66 + x86 + x53 + x88 + x60 + x95 + x59 >= 1;
r219: x36 + x32 + x60 + x78 + x51 >= 1;
r220: x78 + x30 + x87 + x44 + x96 + x67 + x48 >= 1;
r221: x22 + x53 + x91 + x11 + x45 + x25 + x21 >= 1;
r222: x57 + x56 >= 1;
r223: x54 + x59 + x77 >= 1;
r224: x16 + x7 + x98 + x82 + x65 + x10 + x76 >= 1;
r225: x14 + x76 + x32 + x86 + x23 + x67 + x75 >= 1;
r226: x49 + x73 + x9 + x71 >= 1;
r227: x71 + x92 >= 1;
r228: x10 + x76 + x45 + x27 >= 1;
r229: x69 + x62 >= 1;
r230: x97 + x95 + x1 >= 1;
r231: x22 + x80 + x92 + x82 + x17 >= 1;
r232: x91 + x36 >= 1;
r233: x9 >= 1;
r234: x57 >= 1;
r235: x34 + x49 + x65 + x50 + x48 + x96 >= 1;
r236: x99 + x37 + x77 + x60 + x92 + x86 + x49 + x40 >= 1;
r237: x99 + x67 + x5 + x1 >= 1;
r238: x44 + x9 + x84 + x22 + x54 + x30 + x47 >= 1;
r239: x67 + x43 >= 1;
r240: x59 + x55 + x4 + x46 >= 1;
r241: x20 + x29 >= 1;
r242: x39 + x8 + x46 + x96 + x66 >= 1;
r243: x26 + x42 + x13 + x84 + x1 + x78 + x32 + x60 >= 1;
r244: x8 + x70 + x18 + x62 + x65 + x10 + x55 >= 1;
r245: x21 + x58 + x25 + x30 >= 1;
r246: x81 + x86 >= 1;
r247: x83 + x94 + x5 + x76 + x50 + x74 + x84 >= 1;
r248: x80 + x77 + x65 + x27 + x26 >= 1;
r249: x88 >= 1;
r250: x3 + x52 + x71 + x87 + x35 + x37 >= 1;
r251: x48 >= 1;
r252: x9 + x58 + x4 + x81 + x22 + x85 + x39 + x94 >= 1;
r253: x56 + x83 + x38 + x77 + x45 + x6 + x13 + x67 >= 1;
r254: x25 + x100 + x15 + x2 + x54 >= 1;
r255: x53 + x87 >= 1;
r256: x74 + x88 + x62 + x83 + x14 + x20 + x68 + x96 >= 1;
r257: x75 + x14 + x51 + x12 + x60 + x84 >= 1;
r258: x37 + x83 + x4 + x90 + x41 + x45 + x94 >= 1;
r259: x82 + x54 + x13 + x56 + x99 + x8 + x29 >= 1;
r260: x70 + x24 + x72 >= 1;
r261: x44 + x66 + x64 + x59 + x70 + x67 >= 1;
r262: x35 >= 1;
r263: x33 + x38 + x6 + x19 + x78 + x97 >= 1;
r264: x76 + x35 + x22 + x84 >= 1;
r265: x46 + x37 + x18 + x81 + x99 + x78 + x79 + x27 >= 1;
r266: x97 + x93 + x25 + x77 + x67 + x70 + x41 + x33 >= 1;
r267: x44 + x54 + x19 >= 1;
r268: x11 + x83 + x99 + x25 + x43 + x57 + x97 >= 1;
r269: x17 + x12 >= 1;
r270: x37 + x64 + x45 + x47 + x75 + x60 >= 1;
r271: x28 + x5 + x74 >= 1;
r272: x38 >= 1;
r273: x100 + x69 + x38 + x20 + x85 >= 1;
r274: x92 + x34 + x65 + x93 + x8 + x40 + x69 >= 1;
r275: x14 + x1 + x36 + x58 + x98 + x30 + x13 + x48 >= 1;
r276: x53 + x43 + x42 >= 1;
r277: x58 + x53 >= 1;
r278: x20 + x4 + x29 + x86 >= 1;
r279: x80 + x58 + x36 + x70 >= 1;
r280: x84 + x41 + x67 >= 1;
r281: x55 + x90 + x39 + x81 + x67 + x36 >= 1;
r282: x63 >= 1;
r283: x38 + x23 + x78 + x26 >= 1;
r284: x71 >= 1;
r285: x83 >= 1;
r286: x79 + x85 >= 1;
r287: x36 + x15 + x18 >= 1;
r288: x96 + x7 + x87 + x91 + x76 + x94 + x68 >= 1;
r289: x65 + x62 + x27 + x16 + x78 + x32 >= 1;
r290: x15 + x20 + x44 + x61 + x78 + x48 + x79 + x95 >= 1;
r291: x50 + x44 + x13 + x75 + x8 + x32 + x86 >= 1;
r292: x54 + x34 + x63 + x99 + x35 >= 1;
r293: x71 + x32 + x23 >= 1;
r294: x33 + x34 + x45 + x65 + x57 + x7 + x16 >= 1;
r295: x85 + x71 >= 1;
r296: x35 + x19 + x97 + x50 >= 1;
r297: x18 + x29 + x91 + x63 + x98 + x38 + x7 + x94 >= 1;
r298: x89 + x16 + x12 + x10 + x64 + x36 + x79 >= 1;
r299: x41 + x69 + x43 + x34 + x56 >= 1;
r300: x14 + x20 + x61 + x26 + x93 + x65 + x84 >= 1;
r301: x82 >= 1;
r302: x50 + x67 + x69 >= 1;
r303: x90 >= 1;
r304: x51 + x34 + x20 >= 1;
r305: x70 + x14 + x7 + x31 + x96 + x94 >= 1;
r306: x83 + x67 + x69 >= 1;
r307: x3 + x27 + x19 + x74 + x44 >= 1;
r308: x36 + x87 >= 1;
r309: x16 + x76 + x29 + x20 >= 1;
r310: x11 >= 1;
r311: x81 + x47 + x32 + x69 + x43 + x9 >= 1;
r312: x96 + x93 + x3 + x43 + x76 + x1 + x72 >= 1;
r313: x5 + x35 + x58 + x48 + x61 + x73 + x26 >= 1;
r314: x96 + x45 >= 1;
r315: x45 + x50 >= 1;
r316: x43 + x55 + x95 + x72 + x86 + x13 + x79 + x22 >= 1;
r317: x96 + x73 >= 1;
r318: x84 + x55 + x77 + x87 + x73 + x12 + x98 + x21 >= 1;
r319: x41 + x95 + x45 >= 1;
r320: x56 + x81 + x79 + x69 >= 1;
r321: x63 + x3 + x86 + x6 + x94 + x20 + x23 + x89 >= 1;
r322: x22 >= 1;
r323: x71 + x4 >= 1;
r324: x46 + x96 + x79 + x43 + x39 + x87 + x69 >= 1;
r325: x56 >= 1;
r326: x79 + x40 + x72 + x10 + x46 + x35 + x59 >= 1;
r327: x59 + x92 + x76 >= 1;
r328: x8 >= 1;
r329: x88 >= 1;
r330: x49 + x96 + x70 + x41 >= 1;
r331: x62 + x77 + x48 + x72 + x12 + x90 >= 1;
r332: x56 + x50 + x22 + x72 >= 1;
r333: x34 + x65 + x28 + x51 + x73 >= 1;
r334: x1 + x20 + x3 + x32 >= 1;
r335: x63 >= 1;
r336: x24 + x94 + x99 + x47 + x27 + x8 + x74 + x12 >= 1;
r337: x89 + x6 >= 1;
r338: x32 + x69 + x50 >= 1;
r339: x56 + x42 + x20 + x86 + x51 + x35 + x47 >= 1;
r340: x77 + x97 + x69 + x44 + x85 + x54 + x42 >= 1;
r341: x17 + x95 + x100 + x44 + x37 + x24 >= 1;
r342: x30 + x61 + x23 + x19 + x91 + x5 + x38 >= 1;
r343: x58 + x82 + x50 + x60 + x100 + x28 + x80 >= 1;
r344: x46 + x52 + x31 + x43 + x18 + x94 + x32 >= 1;
r345: x45 + x80 + x62 + x1 + x97 + x77 + x82 >= 1;
r346: x33 + x77 + x44 + x67 + x24 + x55 + x78 + x41 >= 1;
r347: x75 + x57 + x20 + x7 >= 1;
r348: x9 + x78 + x87 + x41 >= 1;
r349: x15 + x43 + x90 + x81 + x8 + x33 >= 1;
r350: x20 + x59 + x97 + x84 + x35 >= 1;
r351: x77 + x94 >= 1;
r352: x97 + x90 + x51 + x80 + x61 + x87 >= 1;
r353: x53 + x96 >= 1;
r354: x86 >= 1;
r355: x31 + x83 + x46 + x40 + x90 >= 1;
r356: x100 + x47 + x71 + x32 + x39 >= 1;
r357: x75 + x4 + x9 + x18 + x8 + x81 + x87 + x44 >= 1;
r358: x27 + x74 + x85 + x49 + x62 + x17 >= 1;
r359: x87 + x32 + x30 >= 1;
r360: x80 + x59 + x49 + x92 + x41 + x87 >= 1;
r361: x32 + x46 + x79 + x44 + x31 + x68 >= 1;
r362: x75 + x31 + x73 + x20 >= 1;
r363: x95 + x10 + x26 + x28 + x66 >= 1;
r364: x71 + x73 + x14 + x9 + x1 + x7 + x94 + x31 >= 1;
r365: x70 + x21 + x18 + x47 + x36 + x60 >= 1;
r366: x12 + x7 + x4 >= 1;
r367: x13 + x91 + x62 + x85 + x77 + x89 + x9 + x86 >= 1;
r368: x38 + x12 + x72 + x37 + x75 + x2 >= 1;
r369: x41 + x62 + x18 + x97 + x63 >= 1;
r370: x27 + x45 + x84 + x8 + x7 >= 1;
r371: x31 + x36 + x57 + x69 + x1 + x46 >= 1;
r372: x72 + x84 + x23 + x28 >= 1;
r373: x67 >= 1;
r374: x12 + x39 + x32 + x2 + x67 >= 1;
r375: x68 + x79 + x78 + x46 >= 1;
r376: x74 + x82 + x48 + x43 + x63 >= 1;
r377: x90 + x46 + x82 + x3 + x88 + x81 + x10 + x50 >= 1;
r378: x39 + x20 + x28 + x89 + x98 + x84 + x33 >= 1;
r379: x45 + x19 + x74 >= 1;
r380: x60 + x24 + x6 + x61 + x45 + x30 >= 1;
r381: x47 + x72 + x48 + x32 + x44 + x11 + x90 >= 1;
r382: x46 + x59 + x81 + x89 >= 1;
r383: x9 + x75 + x94 + x55 + x8 >= 1;
r384: x68 + x17 + x85 + x73 + x22 + x97 + x76 >= 1;
r385: x33 + x50 >= 1;
r386: x18 + x17 >= 1;
r387: x56 + x30 + x80 + x69 + x77 + x25 >= 1;
r388: x15 >= 1;
r389: x37 + x68 + x72 + x90 + x61 + x25 + x92 >= 1;
r390: x46 + x97 + x40 >= 1;
r391: x55 + x92 + x100 + x8 + x53 + x23 >= 1;
r392: x75 + x95 + x100 + x89 >= 1;
r393: x54 + x70 + x56 + x21 >= 1;
r394: x53 + x37 >= 1;
r395: x46 + x24 >= 1;
r396: x57 + x75 >= 1;
r397: x70 + x44 + x95 + x4 >= 1;
r398: x43 + x12 + x65 + x69 + x29 + x40 + x60 >= 1;
r399: x35 + x71 >= 1;
r400: x19 + x6 + x29 + x34 + x49 + x44 + x40 >= 1;
r401: x66 + x22 + x15 + x51 >= 1;
r402: x57 + x85 + x46 + x62 + x1 + x50 + x36 + x75 >= 1;
r403: x25 + x54 + x63 + x34 + x27 >= 1;
r404: x1 >= 1;
r405: x8 >= 1;
r406: x37 + x86 + x97 + x38 + x85 + x30 + x91 >= 1;
r407: x66 + x54 + x21 + x80 + x42 + x63 + x16 >= 1;
r408: x86 + x5 + x100 + x2 + x72 >= 1;
r409: x45 + x36 + x5 + x32 >= 1;
r410: x57 + x15 + x52 + x2 >= 1;
r411: x49 + x7 + x45 + x87 + x9 + x34 + x37 + x94 >= 1;
r412: x34 + x66 + x5 >= 1;
r413: x29 + x92 + x34 + x38 >= 1;
r414: x85 + x63 + x52 + x77 >= 1;
r415: x61 + x63 >= 1;
r416: x97 + x64 + x16 + x77 + x96 + x12 + x9 >= 1;
r417: x67 + x26 + x95 + x100 + x2 + x87 + x10 >= 1;
r418: x89 + x18 + x1 + x30 + x3 + x74 + x50 >= 1;
r419: x99 + x58 + x45 >= 1;
r420: x83 + x57 + x23 + x78 >= 1;
r421: x23 + x99 + x37 + x84 + x35 >= 1;
r422: x76 + x67 + x42 + x37 >= 1;
r423: x7 + x81 + x31 + x25 + x63 + x17 >= 1;
r424: x83 + x41 + x33 + x52 + x19 + x29 + x65 + x25 >= 1;
r425: x97 + x20 >= 1;
r426: x67 + x70 + x80 + x79 + x28 + x35 + x30 + x76 >= 1;
r427: x38 + x75 + x76 + x58 + x54 + x30 >= 1;
r428: x36 + x10 + x76 + x100 >= 1;
r429: x17 >= 1;
r430: x17 + x15 + x88 + x54 + x74 + x31 + x12 + x18 >= 1;
r431: x1 + x27 + x96 + x100 + x36 + x80 >= 1;
r432: x44 >= 1;
r433: x19 + x18 + x20 + x27 >= 1;
r434: x65 + x62 >= 1;
r435: x29 + x5 >= 1;
r436: x84 + x85 + x88 + x16 >= 1;
r437: x89 + x19 + x36 + x70 + x23 + x42 + x17 >= 1;
r438: x67 + x35 + x57 + x28 + x45 + x50 >= 1;
r439: x18 + x80 + x13 >= 1;
r440: x60 + x94 + x85 + x77 >= 1;
r441: x9 + x22 + x89 + x93 + x44 >= 1;
r442: x85 + x68 + x60 + x12 + x58 + x76 + x78 >= 1;
r443: x21 + x86 + x99 + x14 + x82 >= 1;
r444: x94 + x53 + x61 + x58 + x33 + x62 + x81 >= 1;
r445: x97 + x98 + x8 >= 1;
r446: x88 + x76 + x49 + x81 + x98 + x82 >= 1;
r447: x52 + x18 + x63 + x9 + x74 >= 1;
r448: x42 + x46 >= 1;
r449: x37 + x88 >= 1;
r450: x95 + x17 + x81 + x58 + x31 + x7 + x94 + x5 >= 1;
r451: x90 + x7 + x50 >= 1;
r452: x87 + x9 + x38 + x84 + x88 + x41 >= 1;
r453: x72 >= 1;
r454: x15 + x62 + x41 >= 1;
r455: x23 + x47 + x52 + x7 + x60 + x97 + x40 >= 1;
r456: x11 >= 1;
r457: x96 + x59 + x1 + x98 >= 1;
r458: x34 + x4 + x53 + x38 >= 1;
r459: x34 + x6 + x85 + x37 + x2 >= 1;
r460: x55 + x65 + x45 + x29 >= 1;
r461: x15 + x75 + x62 + x83 + x1 + x17 + x60 + x38 >= 1;
r462: x2 + x73 >= 1;
r463: x15 + x66 + x3 + x39 + x30 + x4 + x25 >= 1;
r464: x26 + x8 >= 1;
r465: x77 + x98 + x96 >= 1;
r466: x93 + x4 + x45 + x29 + x49 + x79 + x39 + x1 >= 1;
r467: x94 + x88 + x90 + x79 + x97 >= 1;
r468: x14 + x55 >= 1;
r469: x28 + x27 + x19 >= 1;
r470: x63 + x98 + x51 + x100 >= 1;
r471: x81 + x34 + x22 + x15 + x53 + x100 + x17 + x70 >= 1;
r472: x86 + x55 + x85 + x62 + x43 >= 1;
r473: x72 + x33 + x77 + x80 + x5 + x48 + x86 >= 1;
r474: x22 + x58 >= 1;
r475: x25 >= 1;
r476: x87 + x19 + x28 + x90 + x83 >= 1;
r477: x9 + x45 + x65 + x33 + x48 + x17 + x78 >= 1;
r478: x70 + x37 + x88 + x26 + x42 >= 1;
r479: x84 + x45 + x92 + x40 + x1 + x27 + x94 >= 1;
r480: x32 + x98 + x71 + x51 + x39 + x54 + x8 + x83 >= 1;
r481: x27 + x49 + x52 + x71 + x78 + x12 + x37 + x62 >= 1;
r482: x84 + x51 + x63 + x79 + x41 >= 1;
r483: x61 + x41 + x78 + x100 + x56 + x87 + x32 + x38 >= 1;
r484: x99 + x57 + x32 >= 1;
r485: x97 >= 1;
r486: x50 >= 1;
r487: x47 + x30 + x39 >= 1;
r488: x60 >= 1;
r489: x3 + x21 + x2 + x80 + x56 >= 1;
r490: x72 + x58 + x10 >= 1;
r491: x60 + x34 >= 1;
r492: x29 + x54 + x98 + x88 + x79 >= 1;
r493: x78 + x29 + x26 + x24 + x89 >= 1;
r494: x68 + x17 + x99 + x71 + x45 >= 1;
r495: x59 >= 1;
r496: x4 + x16 >= 1;
r497: x76 + x6 + x39 >= 1;
r498: x86 + x15 + x31 + x98 + x99 + x71 + x50 >= 1;
r499: x89 + x35 + x84 + x68 + x73 + x3 >= 1;
r500: x71 >= 1;
r501: x100 + x24 >= 1;
r502: x43 >= 1;
r503: x74 >= 1;
r504: x71 + x88 + x67 + x2 >= 1;
r505: x76 + x55 + x94 + x69 >= 1;
r506: x15 + x68 + x95 + x41 >= 1;
r507: x19 >= 1;
r508: x58 + x23 + x8 + x89 + x100 >= 1;
r509: x10 >= 1;
r510: x47 >= 1;
r511: x4 + x31 + x44 + x88 + x97 + x26 + x45 + x2 >= 1;
r512: x18 + x48 + x67 + x75 + x92 >= 1;
r513: x36 + x20 + x60 >= 1;
r514: x94 + x42 + x8 + x9 + x21 + x97 + x70 + x91 >= 1;
r515: x99 + x92 >= 1;
r516: x34 + x67 + x1 + x75 + x28 >= 1;
r517: x34 + x89 + x44 >= 1;
r518: x27 + x64 + x50 >= 1;
r519: x78 + x15 + x26 + x22 + x50 + x66 >= 1;
r520: x76 + x34 + x94 + x23 + x58 >= 1;
r521: x58 + x40 + x78 >= 1;
r522: x59 + x75 + x29 + x83 + x82 + x42 >= 1;
r523: x90 + x97 + x65 + x30 + x8 + x75 + x53 >= 1;
r524: x72 + x58 + x23 >= 1;
r525: x85 + x17 + x89 >= 1;
r526: x37 + x73 + x22 + x60 + x75 + x81 + x93 + x53 >= 1;
r527: x7 + x17 >= 1;
r528: x2 + x66 >= 1;
r529: x76 + x60 + x10 >= 1;
r530: x20 + x57 + x41 >= 1;
r531: x36 + x42 + x9 + x51 + x90 + x21 >= 1;
r532: x69 + x100 + x54 + x15 >= 1;
r533: x95 + x27 + x77 + x18 + x45 + x26 + x4 + x55 >= 1;
r534: x35 + x66 + x3 + x33 + x43 + x21 + x5 >= 1;
r535: x22 + x74 + x13 + x23 >= 1;
r536: x62 + x16 + x75 + x35 + x54 + x19 + x99 + x87 >= 1;
r537: x20 + x52 >= 1;
r538: x33 + x21 + x55 + x68 + x54 >= 1;
r539: x99 >= 1;
r540: x60 + x22 >= 1;
r541: x99 + x41 + x24 + x39 + x52 + x25 + x96 + x67 >= 1;
r542: x72 + x1 >= 1;
r543: x1 >= 1;
r544: x67 + x56 >= 1;
r545: x24 + x17 + x21 + x69 + x63 >= 1;
r546: x54 + x49 >= 1;
r547: x15 + x6 + x65 + x98 >= 1;
r548: x17 + x16 + x45 + x24 + x10 + x75 + x63 + x20 >= 1;
r549: x57 + x51 + x99 + x69 >= 1;
r550: x7 + x75 >= 1;

bin x1, x2, x3, x4, x5, x6, x7, x8, x9, x10, x11, x12, x13, x14, x15, x16, x17, x18, x19, x20, x21, x22, x23, x24, x25, x26, x27, x28, x29, x30, x31, x32, x33, x34, x35, x36, x37, x38, x39, x40, x41, x42, x43, x44, x45, x46, x47, x48, x49, x50, x51, x52, x53, x54, x55, x56, x57, x58, x59, x60, x61, x62, x63, x64, x65, x66, x67, x68, x69, x70, x71, x72, x73, x74, x75, x76, x77, x78, x79, x80, x81, x82, x83, x84, x85, x86, x87, x88, x89, x90, x91, x92, x93, x94, x95, x96, x97, x98, x99, x100;
